words_hard_train/6755.qaiger
aag 102 15 0 1 87
2
4
8
16
26
34
46
54
70
78
110
118
136
144
162
204
6 2 4
10 4 8
12 5 9
14 11 13
18 15 17
20 6 19
22 14 16
24 21 23
28 13 26
30 12 27
32 29 31
36 33 35
38 32 34
40 37 39
42 25 40
44 43 39
48 31 46
50 30 47
52 49 51
56 53 55
58 52 54
60 57 59
62 44 61
64 45 60
66 63 65
68 65 59
72 51 70
74 50 71
76 73 75
80 77 79
82 76 78
84 81 83
86 68 85
88 69 84
90 87 89
92 67 91
94 3 5
96 19 23
98 96 7
100 95 98
102 24 41
104 103 43
106 100 104
108 89 83
112 75 110
114 74 111
116 113 115
120 117 119
122 116 118
124 121 123
126 108 125
128 109 124
130 127 129
132 107 131
134 129 123
138 114 137
140 115 136
142 139 141
146 143 145
148 142 144
150 147 149
152 134 151
154 135 150
156 153 155
158 132 157
160 92 158
164 162 144
166 163 145
168 165 167
170 168 139
172 169 138
174 171 173
176 155 149
178 175 177
180 174 176
182 179 181
184 161 182
186 95 97
188 187 99
190 188 105
192 185 190
194 106 66
196 194 130
198 196 156
200 198 90
202 183 201
204 192 203
i0 1 x1[1]
i1 2 y2[0]
i2 2 y2[1]
i3 1 x1[2]
i4 2 y2[2]
i5 1 x1[3]
i6 2 y2[3]
i7 1 x1[4]
i8 2 y2[4]
i9 1 x1[5]
i10 2 y2[5]
i11 1 x1[6]
i12 2 y2[6]
i13 1 x1[7]
i14 2 y2[7]
o0 bool[0]
c
simplified
  ==
    add
      1
      subtract
        >> 1
          1 x1
        2 y2
    1
