words_hard_train/6755.qaiger.qdimacs
p cnf 102 262
a 1 39 8 59 72 17 27 0
e 2 3 4 5 6 7 9 10 11 12 13 14 15 16 18 19 20 21 22 23 24 25 26 28 29 30 31 32 33 34 35 36 37 38 40 41 42 43 44 45 46 47 48 49 50 51 52 53 54 55 56 57 58 60 61 62 63 64 65 66 67 68 69 70 71 73 74 75 76 77 78 79 80 81 82 83 84 85 86 87 88 89 90 91 92 93 94 95 96 97 98 99 100 101 102 0
-1 -2 3 0
1 -3 0
2 -3 0
-2 -4 5 0
2 -5 0
4 -5 0
2 4 6 0
-2 -6 0
-4 -6 0
5 6 7 0
-5 -7 0
-6 -7 0
7 8 9 0
-7 -9 0
-8 -9 0
-3 9 10 0
3 -10 0
-9 -10 0
-7 -8 11 0
7 -11 0
8 -11 0
10 11 12 0
-10 -12 0
-11 -12 0
6 -13 14 0
-6 -14 0
13 -14 0
-6 13 15 0
6 -15 0
-13 -15 0
14 15 16 0
-14 -16 0
-15 -16 0
16 17 18 0
-16 -18 0
-17 -18 0
-16 -17 19 0
16 -19 0
17 -19 0
18 19 20 0
-18 -20 0
-19 -20 0
12 -20 21 0
-12 -21 0
20 -21 0
21 19 22 0
-21 -22 0
-19 -22 0
15 -23 24 0
-15 -24 0
23 -24 0
-15 23 25 0
15 -25 0
-23 -25 0
24 25 26 0
-24 -26 0
-25 -26 0
26 27 28 0
-26 -28 0
-27 -28 0
-26 -27 29 0
26 -29 0
27 -29 0
28 29 30 0
-28 -30 0
-29 -30 0
-22 30 31 0
22 -31 0
-30 -31 0
22 -30 32 0
-22 -32 0
30 -32 0
31 32 33 0
-31 -33 0
-32 -33 0
32 29 34 0
-32 -34 0
-29 -34 0
25 -35 36 0
-25 -36 0
35 -36 0
-25 35 37 0
25 -37 0
-35 -37 0
36 37 38 0
-36 -38 0
-37 -38 0
38 39 40 0
-38 -40 0
-39 -40 0
-38 -39 41 0
38 -41 0
39 -41 0
40 41 42 0
-40 -42 0
-41 -42 0
-34 42 43 0
34 -43 0
-42 -43 0
34 -42 44 0
-34 -44 0
42 -44 0
43 44 45 0
-43 -45 0
-44 -45 0
33 45 46 0
-33 -46 0
-45 -46 0
1 2 47 0
-1 -47 0
-2 -47 0
9 11 48 0
-9 -48 0
-11 -48 0
-48 3 49 0
48 -49 0
-3 -49 0
47 -49 50 0
-47 -50 0
49 -50 0
-12 20 51 0
12 -51 0
-20 -51 0
51 21 52 0
-51 -52 0
-21 -52 0
-50 -52 53 0
50 -53 0
52 -53 0
44 41 54 0
-44 -54 0
-41 -54 0
37 -55 56 0
-37 -56 0
55 -56 0
-37 55 57 0
37 -57 0
-55 -57 0
56 57 58 0
-56 -58 0
-57 -58 0
58 59 60 0
-58 -60 0
-59 -60 0
-58 -59 61 0
58 -61 0
59 -61 0
60 61 62 0
-60 -62 0
-61 -62 0
-54 62 63 0
54 -63 0
-62 -63 0
54 -62 64 0
-54 -64 0
62 -64 0
63 64 65 0
-63 -65 0
-64 -65 0
53 65 66 0
-53 -66 0
-65 -66 0
64 61 67 0
-64 -67 0
-61 -67 0
-57 68 69 0
57 -69 0
-68 -69 0
57 -68 70 0
-57 -70 0
68 -70 0
69 70 71 0
-69 -71 0
-70 -71 0
71 72 73 0
-71 -73 0
-72 -73 0
-71 -72 74 0
71 -74 0
72 -74 0
73 74 75 0
-73 -75 0
-74 -75 0
-67 75 76 0
67 -76 0
-75 -76 0
67 -75 77 0
-67 -77 0
75 -77 0
76 77 78 0
-76 -78 0
-77 -78 0
-66 78 79 0
66 -79 0
-78 -79 0
-46 -79 80 0
46 -80 0
79 -80 0
-81 -72 82 0
81 -82 0
72 -82 0
81 72 83 0
-81 -83 0
-72 -83 0
82 83 84 0
-82 -84 0
-83 -84 0
-84 69 85 0
84 -85 0
-69 -85 0
84 -69 86 0
-84 -86 0
69 -86 0
85 86 87 0
-85 -87 0
-86 -87 0
77 74 88 0
-77 -88 0
-74 -88 0
87 88 89 0
-87 -89 0
-88 -89 0
-87 -88 90 0
87 -90 0
88 -90 0
89 90 91 0
-89 -91 0
-90 -91 0
80 -91 92 0
-80 -92 0
91 -92 0
47 48 93 0
-47 -93 0
-48 -93 0
93 49 94 0
-93 -94 0
-49 -94 0
-94 52 95 0
94 -95 0
-52 -95 0
92 -95 96 0
-92 -96 0
95 -96 0
-53 -33 97 0
53 -97 0
33 -97 0
-97 -65 98 0
97 -98 0
65 -98 0
-98 -78 99 0
98 -99 0
78 -99 0
-99 -45 100 0
99 -100 0
45 -100 0
91 100 101 0
-91 -101 0
-100 -101 0
-96 101 102 0
96 -102 0
-101 -102 0
102 0
